p tw 79 710
0 1
0 2
0 3
0 4
0 5
0 6
0 7
0 8
0 9
0 35
0 37
0 39
0 42
0 43
0 46
0 51
0 52
1 2
1 3
1 4
1 5
1 6
1 7
1 8
1 9
1 12
1 23
1 24
1 31
1 36
1 42
1 44
1 47
1 56
1 35
1 57
1 58
1 59
1 60
1 61
1 25
1 33
1 64
1 74
1 75
1 76
2 3
2 4
2 5
2 6
2 7
2 8
2 9
2 21
2 30
2 53
2 73
2 74
2 77
2 78
3 4
3 5
3 6
3 7
3 8
3 9
3 33
3 38
3 39
3 59
3 64
3 69
3 71
3 73
4 5
4 6
4 7
4 8
4 9
4 11
4 24
4 35
4 43
4 44
4 45
4 46
4 47
4 37
4 39
4 42
4 51
4 52
4 21
4 30
4 53
4 73
4 74
4 77
4 78
5 6
5 7
5 8
5 9
5 20
5 25
5 29
5 34
5 53
5 54
5 55
5 18
5 19
5 23
5 30
5 41
5 52
5 57
5 21
5 73
5 74
5 77
5 78
6 7
6 8
6 9
6 10
6 11
6 12
6 13
6 14
6 15
6 16
6 17
6 20
6 25
6 29
6 34
6 53
6 54
6 55
6 31
6 33
6 57
6 64
6 74
6 75
6 76
7 8
7 9
8 9
8 16
8 18
8 26
8 27
8 28
8 29
8 30
8 31
9 11
9 24
9 35
9 43
9 44
9 45
9 46
9 47
9 12
9 56
9 57
9 58
9 59
9 60
9 61
10 11
10 12
10 13
10 14
10 15
10 16
10 17
11 12
11 13
11 14
11 15
11 16
11 17
11 19
11 20
11 22
11 24
11 28
11 32
11 33
11 34
11 35
11 43
11 44
11 45
11 46
11 47
11 62
11 63
11 64
11 29
11 36
11 48
11 51
11 70
11 72
12 13
12 14
12 15
12 16
12 17
12 28
12 36
12 48
12 49
12 50
12 51
12 23
12 24
12 31
12 42
12 44
12 47
12 56
12 35
12 57
12 58
12 59
12 60
12 61
13 14
13 15
13 16
13 17
13 18
13 19
13 20
13 21
13 22
13 23
13 24
13 25
13 28
13 35
13 45
13 62
13 63
13 64
13 29
13 36
13 48
13 51
13 70
13 72
14 15
14 16
14 17
14 28
14 36
14 48
14 49
14 50
14 51
15 16
15 17
16 17
16 18
16 26
16 27
16 28
16 29
16 30
16 31
16 36
16 48
16 49
16 50
16 51
16 35
16 45
16 62
16 63
16 64
16 22
16 70
16 72
18 19
18 20
18 21
18 22
18 23
18 24
18 25
18 26
18 27
18 28
18 29
18 30
18 31
18 41
18 52
18 57
19 20
19 21
19 22
19 23
19 24
19 25
19 28
19 32
19 33
19 34
19 35
19 30
19 41
19 52
19 57
20 21
20 22
20 23
20 24
20 25
20 28
20 32
20 33
20 34
20 35
20 29
20 53
20 54
20 55
21 22
21 23
21 24
21 25
21 30
21 53
21 73
21 74
21 77
21 78
22 23
22 24
22 25
22 28
22 32
22 33
22 34
22 35
22 29
22 36
22 48
22 51
22 70
22 72
23 24
23 25
23 29
23 34
23 36
23 37
23 38
23 39
23 40
23 41
23 42
23 31
23 44
23 47
23 56
23 30
23 52
23 57
23 45
23 48
23 50
23 65
24 25
24 28
24 32
24 33
24 34
24 35
24 43
24 44
24 45
24 46
24 47
24 31
24 36
24 42
24 56
25 29
25 34
25 53
25 54
25 55
25 31
25 33
25 57
25 64
25 74
25 75
25 76
26 27
26 28
26 29
26 30
26 31
27 28
27 29
27 30
27 31
28 29
28 30
28 31
28 32
28 33
28 34
28 35
28 36
28 48
28 49
28 50
28 51
28 45
28 62
28 63
28 64
29 30
29 31
29 34
29 36
29 37
29 38
29 39
29 40
29 41
29 42
29 53
29 54
29 55
29 48
29 51
29 70
29 72
30 31
30 41
30 52
30 57
30 53
30 73
30 74
30 77
30 78
31 36
31 42
31 44
31 47
31 56
31 39
31 45
31 48
31 50
31 65
31 33
31 57
31 64
31 74
31 75
31 76
32 33
32 34
32 35
33 34
33 35
33 38
33 39
33 59
33 64
33 69
33 71
33 73
33 57
33 74
33 75
33 76
34 35
34 36
34 37
34 38
34 39
34 40
34 41
34 42
34 53
34 54
34 55
35 43
35 44
35 45
35 46
35 47
35 37
35 39
35 42
35 51
35 52
35 56
35 57
35 58
35 59
35 60
35 61
35 62
35 63
35 64
36 37
36 38
36 39
36 40
36 41
36 42
36 48
36 49
36 50
36 51
36 44
36 47
36 56
36 70
36 72
37 38
37 39
37 40
37 41
37 42
37 43
37 46
37 51
37 52
38 39
38 40
38 41
38 42
38 59
38 64
38 69
38 71
38 73
39 40
39 41
39 42
39 43
39 46
39 51
39 52
39 45
39 48
39 50
39 65
39 59
39 64
39 69
39 71
39 73
40 41
40 42
40 43
40 44
40 45
40 66
40 67
40 68
40 69
40 70
40 71
41 42
41 52
41 57
42 43
42 46
42 51
42 52
42 44
42 47
42 56
43 44
43 45
43 46
43 47
43 51
43 52
43 66
43 67
43 68
43 69
43 70
43 71
44 45
44 46
44 47
44 56
44 66
44 67
44 68
44 69
44 70
44 71
45 46
45 47
45 62
45 63
45 64
45 48
45 50
45 65
45 66
45 67
45 68
45 69
45 70
45 71
46 47
46 51
46 52
47 56
48 49
48 50
48 51
48 65
48 70
48 72
49 50
49 51
50 51
50 65
51 52
51 70
51 72
52 57
53 54
53 55
53 73
53 74
53 77
53 78
54 55
56 57
56 58
56 59
56 60
56 61
57 58
57 59
57 60
57 61
57 64
57 74
57 75
57 76
58 59
58 60
58 61
59 60
59 61
59 64
59 69
59 71
59 73
60 61
62 63
62 64
63 64
64 69
64 71
64 73
64 74
64 75
64 76
66 67
66 68
66 69
66 70
66 71
67 68
67 69
67 70
67 71
68 69
68 70
68 71
69 70
69 71
69 73
70 71
70 72
71 73
73 74
73 77
73 78
74 75
74 76
74 77
74 78
75 76
77 78
